%chk=Cl.chk
%nproc=2
# PM6 opt 

Title Card Required

-1 1 
 Cl                -0.62126640    0.77060931    0.00000000

