%NProcShared=8
#n B3LYP/6-31G(d) Opt

 Ethane B3LYP 3-21G

0 1
C         -7.00418        4.59128       -0.00000
C         -5.51793        4.27681       -0.00000
H         -7.58097        3.68442        0.27908
H         -7.31845        4.92518       -1.01129
H         -7.21839        5.39808        0.73221
H         -5.30372        3.47000       -0.73221
H         -5.20367        3.94291        1.01129
H         -4.94114        5.18367       -0.27908

