%NProcShared=8
#n B3LYP/6-31G(d) Opt

 Ethane B3LYP 6-31Gd

0 1
C         -6.38770        0.65101       -0.00000
C         -4.85301        0.57162       -0.00000
H         -6.75069        1.00542        0.96733
H         -6.81994       -0.33330       -0.19339
H         -6.73338        1.33993       -0.77394
H         -4.50733       -0.11730        0.77394
H         -4.42077        1.55593        0.19339
H         -4.49002        0.21721       -0.96733

