%NProcShared=8
#n B3LYP/STO-3G Opt

 Ethene B3LYP STO-3G

0 1
C         -7.65068        3.04127        0.00000
C         -6.33127        2.92512        0.00000
H         -8.21080        3.09095       -0.93056
H         -8.21086        3.09021        0.93056
H         -5.77109        2.87619       -0.93056
H         -5.77115        2.87544        0.93056

