%NProcShared=8
#n B3LYP/6-31G(d,p) Opt

 Ethyne B3LYP 6-31Gdp

0 1
C         -8.44511        3.24911        0.00000
C         -7.23998        3.27154        0.00000
H         -9.50331        3.22942        0.00000
H         -6.18178        3.29124       -0.00000

