%NProcShared=8
#n M062X/3-21G Opt

 Ethene M062X 3-21G

0 1
C         -4.78007        3.43964        0.00000
C         -3.44955        3.43964        0.00000
H         -5.32543        3.39863        0.93736
H         -5.32543        3.48066       -0.93736
H         -2.90420        3.39863        0.93736
H         -2.90420        3.48066       -0.93736

