%chk=BMI_MTS_4.chk
%nprocshared=2
# opt M062X/6-311+G* geom=connectivity

Title Card Required

0 1
 C                 -1.12040989   -2.97500726    0.32283042
 C                  0.13974720   -2.93333443    0.79160615
 C                 -0.92351648   -1.24887698    1.57010538
 N                 -1.75731618   -1.91456710    0.82427392
 H                 -1.53355864   -3.71696837   -0.32809340
 H                  0.91982645   -3.63583603    0.58456059
 H                 -1.15182485   -0.35010391    2.10394269
 N                  0.23177614   -1.84878869    1.56421200
 C                  1.43371853   -1.40681584    2.28594218
 H                  2.02629901   -2.25859277    2.54714043
 H                  2.00505217   -0.75306652    1.66057054
 H                  1.14468765   -0.88708013    3.17545658
 C                 -3.16190573   -1.55879111    0.57637977
 H                 -3.27488193   -0.49596984    0.62685083
 H                 -3.45081591   -1.90245501   -0.39486996
 C                 -4.05496463   -2.22112233    1.64191396
 H                 -3.94198841   -3.28394360    1.59144292
 H                 -3.76605449   -1.87745842    2.61316370
 C                 -5.52643940   -1.84840463    1.38221522
 H                 -5.63941561   -0.78558337    1.43268629
 H                 -5.81534949   -2.19206851    0.41096546
 C                 -6.41949839   -2.51073587    2.44774932
 H                 -6.13058830   -2.16707199    3.41899907
 H                 -7.44188673   -2.25176968    2.26730925
 H                 -6.30652217   -3.57355713    2.39727826
 S                  2.07521706   -3.81377439    1.33900480
 O                  2.05021782   -5.27433818    1.49979227
 O                  2.72398664   -3.47219060    0.06537112
 O                  0.69948030   -3.29699285    1.34206375
 O                  2.92972434   -3.12945798    2.60012670
 C                  4.26839042   -3.63231413    2.59715028
 H                  4.74075266   -3.38361056    1.66983133
 H                  4.81588903   -3.19385983    3.40517447
 H                  4.25018880   -4.69573497    2.71421794

 1 2 2.0 4 1.5 5 1.0
 2 6 1.0 8 1.5
 3 4 2.0 7 1.0 8 2.0
 4 13 1.0
 5
 6
 7
 8 9 1.0
 9 10 1.0 11 1.0 12 1.0
 10
 11
 12
 13 14 1.0 15 1.0 16 1.0
 14
 15
 16 17 1.0 18 1.0 19 1.0
 17
 18
 19 20 1.0 21 1.0 22 1.0
 20
 21
 22 23 1.0 24 1.0 25 1.0
 23
 24
 25
 26 27 2.0 28 2.0 29 2.0 30 1.0
 27
 28
 29
 30 31 1.0
 31 32 1.0 33 1.0 34 1.0
 32
 33
 34

