%chk=CHL.chk
# hf/3-21g geom=connectivity

Title Card Required

0 2
 Cl                 0.84459461    0.15202702    0.00000000

 1

