%chk=SOD.chk
# hf/3-21g geom=connectivity

Title Card Required

0 2
 Na                 1.62162166   -0.37162162    0.00000000

 1

