%chk=SOD_CHL.chk
# hf/3-21g geom=connectivity

Title Card Required

0 1
 Cl                 0.84459461    0.15202702    0.00000000
 Na                 0.37162163    1.87499997    0.00000000

 1
 2

