%NProcShared=8
#n CCSD/STO-3G Opt

 CH_CCSD/STO-3G

0 1
C          0.81212        0.92205        2.25756
C         -0.25466        0.80282        1.70927
H          1.74883        1.02674        2.73900
H         -1.19137        0.69814        1.22782

