%NProcShared=8
#n B3LYP/STO-3G Opt

 HH_B3LYP/STO-3G

0 1
H         -1.03999        1.83516        0.00000
H         -0.43499        0.91648        0.00000
