%NProcShared=8
#n CCSD/6-31G(d,p) Opt

 HH_CCSD/6-31G(d)

0 1
H         -1.03999        1.83516        0.00000
H         -0.43499        0.91648        0.00000
