%NProcShared=8
#n MP2/6-31G(d) Opt

 HH_MP2/3-21G

0 1
H         -1.03999        1.83516        0.00000
H         -0.43499        0.91648        0.00000
