%NProcShared=8
#n M062X/6-31G(d,p) Opt

 HH_M062X/6-31G(d)

0 1
H         -1.03999        1.83516        0.00000
H         -0.43499        0.91648        0.00000
