%NProcShared=8
#n MP2/LANL2DZ Opt

 HH_MP2/6-31G(d,p)

0 1
H         -1.03999        1.83516        0.00000
H         -0.43499        0.91648        0.00000
