%NProcShared=8
#n M062X/LANL2DZ Opt

 Hydrogen M062X LANL2DZ

0 1
H         -5.84503        3.67767        0.00000
H         -5.14699        3.55934       -0.00000

