%NProcShared=8
#n CCSD/3-21G Opt

 Hydrogen CCSD 3-21G

0 1
H         -5.84503        3.67767        0.00000
H         -5.14699        3.55934       -0.00000

