%chk=bmim-cl_real.chk
%nproc=2
# PM6 opt 

Title Card Required

0 1 
 C                -11.60316898    2.88718507   21.64361261
 C                 -9.95128905    4.45594287   21.87104844
 C                -11.87755624    4.14257917   20.89506415
 H                 -9.05256549    4.92523589   22.21304265
 H                -12.42407652    4.27209736   19.98432785
 H                -12.27631800    2.17144669   22.06727400
 C                 -9.52337277    2.17591853   22.78204825
 H                 -8.46438155    2.32900553   22.78064164
 H                 -9.92960263    2.50171579   23.71678534
 C                 -9.82589229    0.67887005   22.58474696
 H                -10.88488351    0.52578304   22.58615357
 H                 -9.41966243    0.35307279   21.65000986
 C                 -9.18892352   -0.12894312   23.73074376
 H                 -8.12993231    0.02414389   23.72933715
 H                 -9.59515338    0.19685415   24.66548086
 C                 -9.49144305   -1.62599159   23.53344247
 H                 -9.08521318   -1.95178886   22.59870538
 H                 -9.04887383   -2.18726438   24.32968700
 H                -10.55043426   -1.77907860   23.53484908
 C                -11.44884257    6.45828172   22.00446572
 H                -12.12675227    6.86931707   21.28586403
 H                -11.91924052    6.43363055   22.96520402
 H                -10.56940829    7.06581718   22.05341475
 N                -10.13138841    2.94701291   21.68814221
 N                -11.07945580    5.09280333   21.60456300
 Cl               -13.80109940    3.31499651   26.19234641

