%chk=Cl.chk
%nproc=2
# M062X/6-311+G*  opt 

Title Card Required

-1 1 
 Cl                -0.62126640    0.77060931    0.00000000

