%NProcShared=8
#n B3LYP/6-31G(d,p) Opt

 Hydrogen B3LYP 6-31Gdp

0 1
H         -5.84503        3.67767        0.00000
H         -5.14699        3.55934       -0.00000

